; benchmark generated from python API
(set-info :status unknown)
(declare-fun args_0_8 () (_ BitVec 8))
(declare-fun strlen_77_64 () (_ BitVec 64))
(declare-fun args_1_8 () (_ BitVec 8))
(declare-fun strlen_79_64 () (_ BitVec 64))
(declare-fun args_2_8 () (_ BitVec 8))
(declare-fun strlen_81_64 () (_ BitVec 64))
(declare-fun strlen_83_64 () (_ BitVec 64))
(declare-fun args_3_8 () (_ BitVec 8))
(declare-fun args_4_8 () (_ BitVec 8))
(declare-fun strlen_85_64 () (_ BitVec 64))
(declare-fun strlen_87_64 () (_ BitVec 64))
(declare-fun args_5_16 () (_ BitVec 16))
(declare-fun strlen_91_64 () (_ BitVec 64))
(declare-fun args_6_16 () (_ BitVec 16))
(declare-fun strlen_99_64 () (_ BitVec 64))
(declare-fun args_7_16 () (_ BitVec 16))
(declare-fun strlen_108_64 () (_ BitVec 64))
(declare-fun args_8_16 () (_ BitVec 16))
(declare-fun strlen_116_64 () (_ BitVec 64))
(declare-fun args_9_16 () (_ BitVec 16))
(declare-fun strlen_552_64 () (_ BitVec 64))
(declare-fun strlen_168_64 () (_ BitVec 64))
(declare-fun strlen_177_64 () (_ BitVec 64))
(declare-fun strlen_189_64 () (_ BitVec 64))
(declare-fun strlen_280_64 () (_ BitVec 64))
(declare-fun strlen_310_64 () (_ BitVec 64))
(declare-fun strlen_342_64 () (_ BitVec 64))
(declare-fun strlen_374_64 () (_ BitVec 64))
(declare-fun strlen_409_64 () (_ BitVec 64))
(declare-fun strlen_443_64 () (_ BitVec 64))
(declare-fun strlen_478_64 () (_ BitVec 64))
(declare-fun strlen_514_64 () (_ BitVec 64))
(declare-fun strlen_590_64 () (_ BitVec 64))
(declare-fun args_10_32 () (_ BitVec 32))
(declare-fun strlen_629_64 () (_ BitVec 64))
(declare-fun args_11_32 () (_ BitVec 32))
(declare-fun strlen_668_64 () (_ BitVec 64))
(declare-fun args_12_32 () (_ BitVec 32))
(declare-fun strlen_705_64 () (_ BitVec 64))
(declare-fun args_13_32 () (_ BitVec 32))
(declare-fun strlen_741_64 () (_ BitVec 64))
(declare-fun args_14_32 () (_ BitVec 32))
(declare-fun strlen_772_64 () (_ BitVec 64))
(declare-fun args_15_64 () (_ BitVec 64))
(declare-fun strlen_802_64 () (_ BitVec 64))
(declare-fun args_16_64 () (_ BitVec 64))
(declare-fun strlen_831_64 () (_ BitVec 64))
(declare-fun args_17_64 () (_ BitVec 64))
(declare-fun strlen_859_64 () (_ BitVec 64))
(declare-fun args_18_64 () (_ BitVec 64))
(declare-fun strlen_886_64 () (_ BitVec 64))
(declare-fun args_19_64 () (_ BitVec 64))
(declare-fun sys_time_1073_64 () (_ BitVec 64))
(declare-fun sys_time_1084_64 () (_ BitVec 64))
(assert
 (let (($x69 (= (_ bv0 8) args_0_8)))
 (not $x69)))
(assert
 (= (_ bv1 64) strlen_77_64))
(assert
 (let (($x359 (= (_ bv0 8) args_1_8)))
 (not $x359)))
(assert
 (= (_ bv1 64) strlen_79_64))
(assert
 (let (($x211 (= (_ bv0 8) args_2_8)))
 (not $x211)))
(assert
 (= (_ bv1 64) strlen_81_64))
(assert
 (= (_ bv1 64) strlen_83_64))
(assert
 (let (($x845 (= (_ bv0 8) args_3_8)))
 (not $x845)))
(assert
 (let (($x1140 (= (_ bv0 8) args_4_8)))
 (not $x1140)))
(assert
 (= (_ bv1 64) strlen_85_64))
(assert
 (= (_ bv2 64) strlen_87_64))
(assert
 (let ((?x1474 ((_ extract 15 8) args_5_16)))
 (let (($x1010 (= (_ bv0 8) ?x1474)))
 (not $x1010))))
(assert
 (let ((?x1473 ((_ extract 7 0) args_5_16)))
 (let (($x1480 (= (_ bv0 8) ?x1473)))
 (not $x1480))))
(assert
 (= (_ bv2 64) strlen_91_64))
(assert
 (let ((?x1906 ((_ extract 7 0) args_6_16)))
 (let (($x1220 (= (_ bv0 8) ?x1906)))
 (not $x1220))))
(assert
 (let ((?x1646 ((_ extract 15 8) args_6_16)))
 (let (($x1544 (= (_ bv0 8) ?x1646)))
 (not $x1544))))
(assert
 (= (_ bv2 64) strlen_99_64))
(assert
 (let ((?x944 ((_ extract 7 0) args_7_16)))
 (let (($x2153 (= (_ bv0 8) ?x944)))
 (not $x2153))))
(assert
 (let ((?x2056 ((_ extract 15 8) args_7_16)))
 (let (($x2419 (= (_ bv0 8) ?x2056)))
 (not $x2419))))
(assert
 (= (_ bv2 64) strlen_108_64))
(assert
 (let ((?x2766 ((_ extract 15 8) args_8_16)))
 (let (($x3226 (= (_ bv0 8) ?x2766)))
 (not $x3226))))
(assert
 (let ((?x2491 ((_ extract 7 0) args_8_16)))
 (let (($x3207 (= (_ bv0 8) ?x2491)))
 (not $x3207))))
(assert
 (let ((?x3728 ((_ extract 63 63) strlen_116_64)))
 (= (_ bv0 1) ?x3728)))
(assert
 (let ((?x2848 (bvadd (_ bv576460752303357846 64) strlen_116_64)))
 (let ((?x3735 ((_ extract 7 0) args_9_16)))
 (let (($x3581 (= (_ bv0 8) ?x3735)))
 (let ((?x4338 (ite $x3581 (_ bv576460752303357847 64) (_ bv576460752303357848 64))))
 (let ((?x3102 ((_ extract 15 8) args_9_16)))
 (let (($x3771 (= (_ bv0 8) ?x3102)))
 (let ((?x4333 (ite $x3771 (_ bv576460752303357846 64) ?x4338)))
 (= ?x4333 ?x2848)))))))))
(assert
 (let ((?x48751 (bvadd (_ bv576460752303357846 64) strlen_552_64)))
 (let ((?x3735 ((_ extract 7 0) args_9_16)))
 (let (($x3581 (= (_ bv0 8) ?x3735)))
 (let ((?x4338 (ite $x3581 (_ bv576460752303357847 64) (_ bv576460752303357848 64))))
 (let ((?x3102 ((_ extract 15 8) args_9_16)))
 (let (($x3771 (= (_ bv0 8) ?x3102)))
 (let ((?x4333 (ite $x3771 (_ bv576460752303357846 64) ?x4338)))
 (= ?x4333 ?x48751)))))))))
(assert
 (let ((?x50410 (bvadd (_ bv1 64) strlen_552_64)))
 (let ((?x50659 ((_ extract 63 2) ?x50410)))
 (= (_ bv0 62) ?x50659))))
(assert
 (let ((?x50395 ((_ extract 1 0) strlen_552_64)))
 (let ((?x50536 (bvadd (_ bv1 2) ?x50395)))
 (bvule ?x50536 (_ bv2 2)))))
(assert
 (= (_ bv1 64) strlen_168_64))
(assert
 (= (_ bv1 64) strlen_177_64))
(assert
 (= (_ bv1 64) strlen_189_64))
(assert
 (= (_ bv1 64) strlen_280_64))
(assert
 (= (_ bv1 64) strlen_310_64))
(assert
 (= (_ bv1 64) strlen_342_64))
(assert
 (= (_ bv1 64) strlen_374_64))
(assert
 (= (_ bv2 64) strlen_409_64))
(assert
 (= (_ bv2 64) strlen_443_64))
(assert
 (= (_ bv2 64) strlen_478_64))
(assert
 (= (_ bv2 64) strlen_514_64))
(assert
 (let ((?x55500 (bvadd (_ bv576460752303357849 64) strlen_590_64)))
 (let ((?x3490 ((_ extract 7 0) args_10_32)))
 (let (($x3139 (= (_ bv0 8) ?x3490)))
 (let ((?x5565 (ite $x3139 (_ bv576460752303357852 64) (_ bv576460752303357853 64))))
 (let ((?x3761 ((_ extract 15 8) args_10_32)))
 (let (($x3847 (= (_ bv0 8) ?x3761)))
 (let ((?x5410 (ite $x3847 (_ bv576460752303357851 64) ?x5565)))
 (let ((?x3388 ((_ extract 23 16) args_10_32)))
 (let (($x3778 (= (_ bv0 8) ?x3388)))
 (let ((?x5402 (ite $x3778 (_ bv576460752303357850 64) ?x5410)))
 (let ((?x3227 ((_ extract 31 24) args_10_32)))
 (let (($x3588 (= (_ bv0 8) ?x3227)))
 (let ((?x5394 (ite $x3588 (_ bv576460752303357849 64) ?x5402)))
 (= ?x5394 ?x55500)))))))))))))))
(assert
 (let ((?x55852 (bvadd (_ bv1 64) strlen_590_64)))
 (let ((?x50894 ((_ extract 63 3) ?x55852)))
 (= (_ bv0 61) ?x50894))))
(assert
 (let ((?x55931 ((_ extract 2 0) strlen_590_64)))
 (let ((?x55516 (bvadd (_ bv1 3) ?x55931)))
 (bvule ?x55516 (_ bv5 3)))))
(assert
 (bvule strlen_590_64 (_ bv18446744073709551614 64)))
(assert
 (let ((?x61484 (bvadd (_ bv576460752303357854 64) strlen_629_64)))
 (let ((?x5702 ((_ extract 7 0) args_11_32)))
 (let (($x5773 (= (_ bv0 8) ?x5702)))
 (let ((?x6262 (ite $x5773 (_ bv576460752303357857 64) (_ bv576460752303357858 64))))
 (let ((?x5780 ((_ extract 15 8) args_11_32)))
 (let (($x5788 (= (_ bv0 8) ?x5780)))
 (let ((?x6329 (ite $x5788 (_ bv576460752303357856 64) ?x6262)))
 (let ((?x5688 ((_ extract 23 16) args_11_32)))
 (let (($x5775 (= (_ bv0 8) ?x5688)))
 (let ((?x7835 (ite $x5775 (_ bv576460752303357855 64) ?x6329)))
 (let ((?x5760 ((_ extract 31 24) args_11_32)))
 (let (($x5875 (= (_ bv0 8) ?x5760)))
 (let ((?x7768 (ite $x5875 (_ bv576460752303357854 64) ?x7835)))
 (= ?x7768 ?x61484)))))))))))))))
(assert
 (let ((?x61880 (bvadd (_ bv1 64) strlen_629_64)))
 (let ((?x61799 ((_ extract 63 3) ?x61880)))
 (= (_ bv0 61) ?x61799))))
(assert
 (let ((?x61834 ((_ extract 2 0) strlen_629_64)))
 (let ((?x63489 (bvadd (_ bv1 3) ?x61834)))
 (bvule ?x63489 (_ bv5 3)))))
(assert
 (bvule strlen_629_64 (_ bv18446744073709551614 64)))
(assert
 (let ((?x67636 (bvadd (_ bv576460752303357859 64) strlen_668_64)))
 (let ((?x6440 ((_ extract 7 0) args_12_32)))
 (let (($x6436 (= (_ bv0 8) ?x6440)))
 (let ((?x7707 (ite $x6436 (_ bv576460752303357862 64) (_ bv576460752303357863 64))))
 (let ((?x7075 ((_ extract 15 8) args_12_32)))
 (let (($x5268 (= (_ bv0 8) ?x7075)))
 (let ((?x7895 (ite $x5268 (_ bv576460752303357861 64) ?x7707)))
 (let ((?x5265 ((_ extract 23 16) args_12_32)))
 (let (($x4918 (= (_ bv0 8) ?x5265)))
 (let ((?x8083 (ite $x4918 (_ bv576460752303357860 64) ?x7895)))
 (let ((?x5236 ((_ extract 31 24) args_12_32)))
 (let (($x7048 (= (_ bv0 8) ?x5236)))
 (let ((?x8084 (ite $x7048 (_ bv576460752303357859 64) ?x8083)))
 (= ?x8084 ?x67636)))))))))))))))
(assert
 (let ((?x67862 (bvadd (_ bv1 64) strlen_668_64)))
 (let ((?x67860 ((_ extract 63 3) ?x67862)))
 (= (_ bv0 61) ?x67860))))
(assert
 (let ((?x67909 ((_ extract 2 0) strlen_668_64)))
 (let ((?x69533 (bvadd (_ bv1 3) ?x67909)))
 (bvule ?x69533 (_ bv5 3)))))
(assert
 (bvule strlen_668_64 (_ bv18446744073709551614 64)))
(assert
 (let ((?x73487 (bvadd (_ bv576460752303357864 64) strlen_705_64)))
 (let ((?x8592 ((_ extract 7 0) args_13_32)))
 (let (($x8567 (= (_ bv0 8) ?x8592)))
 (let ((?x12896 (ite $x8567 (_ bv576460752303357867 64) (_ bv576460752303357868 64))))
 (let ((?x8497 ((_ extract 15 8) args_13_32)))
 (let (($x8524 (= (_ bv0 8) ?x8497)))
 (let ((?x12930 (ite $x8524 (_ bv576460752303357866 64) ?x12896)))
 (let ((?x8547 ((_ extract 23 16) args_13_32)))
 (let (($x7742 (= (_ bv0 8) ?x8547)))
 (let ((?x12843 (ite $x7742 (_ bv576460752303357865 64) ?x12930)))
 (let ((?x8516 ((_ extract 31 24) args_13_32)))
 (let (($x8529 (= (_ bv0 8) ?x8516)))
 (let ((?x12905 (ite $x8529 (_ bv576460752303357864 64) ?x12843)))
 (= ?x12905 ?x73487)))))))))))))))
(assert
 (let ((?x73900 (bvadd (_ bv1 64) strlen_705_64)))
 (let ((?x73357 ((_ extract 63 3) ?x73900)))
 (= (_ bv0 61) ?x73357))))
(assert
 (let ((?x73894 ((_ extract 2 0) strlen_705_64)))
 (let ((?x73870 (bvadd (_ bv1 3) ?x73894)))
 (bvule ?x73870 (_ bv5 3)))))
(assert
 (bvule strlen_705_64 (_ bv18446744073709551614 64)))
(assert
 (let ((?x78977 (bvadd (_ bv576460752303357869 64) strlen_741_64)))
 (let ((?x8685 ((_ extract 7 0) args_14_32)))
 (let (($x8778 (= (_ bv0 8) ?x8685)))
 (let ((?x13011 (ite $x8778 (_ bv576460752303357872 64) (_ bv576460752303357873 64))))
 (let ((?x8754 ((_ extract 15 8) args_14_32)))
 (let (($x8818 (= (_ bv0 8) ?x8754)))
 (let ((?x13039 (ite $x8818 (_ bv576460752303357871 64) ?x13011)))
 (let ((?x8747 ((_ extract 23 16) args_14_32)))
 (let (($x8600 (= (_ bv0 8) ?x8747)))
 (let ((?x13055 (ite $x8600 (_ bv576460752303357870 64) ?x13039)))
 (let ((?x8789 ((_ extract 31 24) args_14_32)))
 (let (($x8713 (= (_ bv0 8) ?x8789)))
 (let ((?x13225 (ite $x8713 (_ bv576460752303357869 64) ?x13055)))
 (= ?x13225 ?x78977)))))))))))))))
(assert
 (let ((?x79176 (bvadd (_ bv1 64) strlen_741_64)))
 (let ((?x79258 ((_ extract 63 3) ?x79176)))
 (= (_ bv0 61) ?x79258))))
(assert
 (let ((?x79111 ((_ extract 2 0) strlen_741_64)))
 (let ((?x77154 (bvadd (_ bv1 3) ?x79111)))
 (bvule ?x77154 (_ bv5 3)))))
(assert
 (bvule strlen_741_64 (_ bv18446744073709551614 64)))
(assert
 (let ((?x83719 (bvadd (_ bv576460752303357874 64) strlen_772_64)))
 (let ((?x12719 ((_ extract 7 0) args_15_64)))
 (let (($x12599 (= (_ bv0 8) ?x12719)))
 (let ((?x13251 (ite $x12599 (_ bv576460752303357881 64) (_ bv576460752303357882 64))))
 (let ((?x12687 ((_ extract 15 8) args_15_64)))
 (let (($x12671 (= (_ bv0 8) ?x12687)))
 (let ((?x13247 (ite $x12671 (_ bv576460752303357880 64) ?x13251)))
 (let ((?x12566 ((_ extract 23 16) args_15_64)))
 (let (($x12715 (= (_ bv0 8) ?x12566)))
 (let ((?x13261 (ite $x12715 (_ bv576460752303357879 64) ?x13247)))
 (let ((?x12654 ((_ extract 31 24) args_15_64)))
 (let (($x12645 (= (_ bv0 8) ?x12654)))
 (let ((?x12676 (ite $x12645 (_ bv576460752303357878 64) ?x13261)))
 (let ((?x12395 ((_ extract 39 32) args_15_64)))
 (let (($x12668 (= (_ bv0 8) ?x12395)))
 (let ((?x12427 (ite $x12668 (_ bv576460752303357877 64) ?x12676)))
 (let ((?x12620 ((_ extract 47 40) args_15_64)))
 (let (($x12529 (= (_ bv0 8) ?x12620)))
 (let ((?x12859 (ite $x12529 (_ bv576460752303357876 64) ?x12427)))
 (let ((?x12640 ((_ extract 55 48) args_15_64)))
 (let (($x12613 (= (_ bv0 8) ?x12640)))
 (let ((?x13528 (ite $x12613 (_ bv576460752303357875 64) ?x12859)))
 (let ((?x12684 ((_ extract 63 56) args_15_64)))
 (let (($x12730 (= (_ bv0 8) ?x12684)))
 (let ((?x13670 (ite $x12730 (_ bv576460752303357874 64) ?x13528)))
 (= ?x13670 ?x83719)))))))))))))))))))))))))))
(assert
 (let ((?x83740 (bvadd (_ bv1 64) strlen_772_64)))
 (let ((?x81981 ((_ extract 63 4) ?x83740)))
 (= (_ bv0 60) ?x81981))))
(assert
 (let ((?x83805 ((_ extract 3 0) strlen_772_64)))
 (let ((?x82493 (bvadd (_ bv1 4) ?x83805)))
 (bvule ?x82493 (_ bv9 4)))))
(assert
 (bvule strlen_772_64 (_ bv18446744073709551614 64)))
(assert
 (let ((?x87962 (bvadd (_ bv576460752303357883 64) strlen_802_64)))
 (let ((?x16071 ((_ extract 7 0) args_16_64)))
 (let (($x15893 (= (_ bv0 8) ?x16071)))
 (let ((?x18009 (ite $x15893 (_ bv576460752303357890 64) (_ bv576460752303357891 64))))
 (let ((?x15920 ((_ extract 15 8) args_16_64)))
 (let (($x15905 (= (_ bv0 8) ?x15920)))
 (let ((?x18038 (ite $x15905 (_ bv576460752303357889 64) ?x18009)))
 (let ((?x16120 ((_ extract 23 16) args_16_64)))
 (let (($x16040 (= (_ bv0 8) ?x16120)))
 (let ((?x18044 (ite $x16040 (_ bv576460752303357888 64) ?x18038)))
 (let ((?x16091 ((_ extract 31 24) args_16_64)))
 (let (($x16125 (= (_ bv0 8) ?x16091)))
 (let ((?x18036 (ite $x16125 (_ bv576460752303357887 64) ?x18044)))
 (let ((?x16044 ((_ extract 39 32) args_16_64)))
 (let (($x16109 (= (_ bv0 8) ?x16044)))
 (let ((?x18029 (ite $x16109 (_ bv576460752303357886 64) ?x18036)))
 (let ((?x15231 ((_ extract 47 40) args_16_64)))
 (let (($x15832 (= (_ bv0 8) ?x15231)))
 (let ((?x18021 (ite $x15832 (_ bv576460752303357885 64) ?x18029)))
 (let ((?x15951 ((_ extract 55 48) args_16_64)))
 (let (($x15924 (= (_ bv0 8) ?x15951)))
 (let ((?x18015 (ite $x15924 (_ bv576460752303357884 64) ?x18021)))
 (let ((?x15821 ((_ extract 63 56) args_16_64)))
 (let (($x15881 (= (_ bv0 8) ?x15821)))
 (let ((?x18001 (ite $x15881 (_ bv576460752303357883 64) ?x18015)))
 (= ?x18001 ?x87962)))))))))))))))))))))))))))
(assert
 (let ((?x88330 (bvadd (_ bv1 64) strlen_802_64)))
 (let ((?x88235 ((_ extract 63 4) ?x88330)))
 (= (_ bv0 60) ?x88235))))
(assert
 (let ((?x88422 ((_ extract 3 0) strlen_802_64)))
 (let ((?x88231 (bvadd (_ bv1 4) ?x88422)))
 (bvule ?x88231 (_ bv9 4)))))
(assert
 (bvule strlen_802_64 (_ bv18446744073709551614 64)))
(assert
 (let ((?x92419 (bvadd (_ bv576460752303357892 64) strlen_831_64)))
 (let ((?x17285 ((_ extract 7 0) args_17_64)))
 (let (($x13048 (= (_ bv0 8) ?x17285)))
 (let ((?x19912 (ite $x13048 (_ bv576460752303357899 64) (_ bv576460752303357900 64))))
 (let ((?x16045 ((_ extract 15 8) args_17_64)))
 (let (($x16281 (= (_ bv0 8) ?x16045)))
 (let ((?x23127 (ite $x16281 (_ bv576460752303357898 64) ?x19912)))
 (let ((?x13888 ((_ extract 23 16) args_17_64)))
 (let (($x13927 (= (_ bv0 8) ?x13888)))
 (let ((?x22133 (ite $x13927 (_ bv576460752303357897 64) ?x23127)))
 (let ((?x16166 ((_ extract 31 24) args_17_64)))
 (let (($x14506 (= (_ bv0 8) ?x16166)))
 (let ((?x19735 (ite $x14506 (_ bv576460752303357896 64) ?x22133)))
 (let ((?x14555 ((_ extract 39 32) args_17_64)))
 (let (($x16257 (= (_ bv0 8) ?x14555)))
 (let ((?x20072 (ite $x16257 (_ bv576460752303357895 64) ?x19735)))
 (let ((?x16160 ((_ extract 47 40) args_17_64)))
 (let (($x17914 (= (_ bv0 8) ?x16160)))
 (let ((?x19859 (ite $x17914 (_ bv576460752303357894 64) ?x20072)))
 (let ((?x17949 ((_ extract 55 48) args_17_64)))
 (let (($x16357 (= (_ bv0 8) ?x17949)))
 (let ((?x20112 (ite $x16357 (_ bv576460752303357893 64) ?x19859)))
 (let ((?x16175 ((_ extract 63 56) args_17_64)))
 (let (($x16341 (= (_ bv0 8) ?x16175)))
 (let ((?x19993 (ite $x16341 (_ bv576460752303357892 64) ?x20112)))
 (= ?x19993 ?x92419)))))))))))))))))))))))))))
(assert
 (let ((?x90641 (bvadd (_ bv1 64) strlen_831_64)))
 (let ((?x92599 ((_ extract 63 4) ?x90641)))
 (= (_ bv0 60) ?x92599))))
(assert
 (let ((?x91155 ((_ extract 3 0) strlen_831_64)))
 (let ((?x90745 (bvadd (_ bv1 4) ?x91155)))
 (bvule ?x90745 (_ bv9 4)))))
(assert
 (bvule strlen_831_64 (_ bv18446744073709551614 64)))
(assert
 (let ((?x96103 (bvadd (_ bv576460752303357901 64) strlen_859_64)))
 (let ((?x21369 ((_ extract 7 0) args_18_64)))
 (let (($x23356 (= (_ bv0 8) ?x21369)))
 (let ((?x24376 (ite $x23356 (_ bv576460752303357908 64) (_ bv576460752303357909 64))))
 (let ((?x17981 ((_ extract 15 8) args_18_64)))
 (let (($x20999 (= (_ bv0 8) ?x17981)))
 (let ((?x24277 (ite $x20999 (_ bv576460752303357907 64) ?x24376)))
 (let ((?x23399 ((_ extract 23 16) args_18_64)))
 (let (($x23441 (= (_ bv0 8) ?x23399)))
 (let ((?x24342 (ite $x23441 (_ bv576460752303357906 64) ?x24277)))
 (let ((?x21200 ((_ extract 31 24) args_18_64)))
 (let (($x23434 (= (_ bv0 8) ?x21200)))
 (let ((?x24281 (ite $x23434 (_ bv576460752303357905 64) ?x24342)))
 (let ((?x18357 ((_ extract 39 32) args_18_64)))
 (let (($x23108 (= (_ bv0 8) ?x18357)))
 (let ((?x26188 (ite $x23108 (_ bv576460752303357904 64) ?x24281)))
 (let ((?x23328 ((_ extract 47 40) args_18_64)))
 (let (($x17902 (= (_ bv0 8) ?x23328)))
 (let ((?x26208 (ite $x17902 (_ bv576460752303357903 64) ?x26188)))
 (let ((?x15573 ((_ extract 55 48) args_18_64)))
 (let (($x23188 (= (_ bv0 8) ?x15573)))
 (let ((?x26014 (ite $x23188 (_ bv576460752303357902 64) ?x26208)))
 (let ((?x18296 ((_ extract 63 56) args_18_64)))
 (let (($x23498 (= (_ bv0 8) ?x18296)))
 (let ((?x25991 (ite $x23498 (_ bv576460752303357901 64) ?x26014)))
 (= ?x25991 ?x96103)))))))))))))))))))))))))))
(assert
 (let ((?x96535 (bvadd (_ bv1 64) strlen_859_64)))
 (let ((?x96569 ((_ extract 63 4) ?x96535)))
 (= (_ bv0 60) ?x96569))))
(assert
 (let ((?x96109 ((_ extract 3 0) strlen_859_64)))
 (let ((?x94762 (bvadd (_ bv1 4) ?x96109)))
 (bvule ?x94762 (_ bv9 4)))))
(assert
 (bvule strlen_859_64 (_ bv18446744073709551614 64)))
(assert
 (let ((?x100053 (bvadd (_ bv576460752303357910 64) strlen_886_64)))
 (let ((?x27336 ((_ extract 7 0) args_19_64)))
 (let (($x27385 (= (_ bv0 8) ?x27336)))
 (let ((?x20231 (ite $x27385 (_ bv576460752303357917 64) (_ bv576460752303357918 64))))
 (let ((?x25557 ((_ extract 15 8) args_19_64)))
 (let (($x25388 (= (_ bv0 8) ?x25557)))
 (let ((?x19999 (ite $x25388 (_ bv576460752303357916 64) ?x20231)))
 (let ((?x27267 ((_ extract 23 16) args_19_64)))
 (let (($x27378 (= (_ bv0 8) ?x27267)))
 (let ((?x20088 (ite $x27378 (_ bv576460752303357915 64) ?x19999)))
 (let ((?x25573 ((_ extract 31 24) args_19_64)))
 (let (($x27315 (= (_ bv0 8) ?x25573)))
 (let ((?x20060 (ite $x27315 (_ bv576460752303357914 64) ?x20088)))
 (let ((?x25213 ((_ extract 39 32) args_19_64)))
 (let (($x23385 (= (_ bv0 8) ?x25213)))
 (let ((?x20235 (ite $x23385 (_ bv576460752303357913 64) ?x20060)))
 (let ((?x27324 ((_ extract 47 40) args_19_64)))
 (let (($x27088 (= (_ bv0 8) ?x27324)))
 (let ((?x20237 (ite $x27088 (_ bv576460752303357912 64) ?x20235)))
 (let ((?x24874 ((_ extract 55 48) args_19_64)))
 (let (($x25431 (= (_ bv0 8) ?x24874)))
 (let ((?x20239 (ite $x25431 (_ bv576460752303357911 64) ?x20237)))
 (let ((?x27258 ((_ extract 63 56) args_19_64)))
 (let (($x26264 (= (_ bv0 8) ?x27258)))
 (let ((?x20241 (ite $x26264 (_ bv576460752303357910 64) ?x20239)))
 (= ?x20241 ?x100053)))))))))))))))))))))))))))
(assert
 (let ((?x100210 (bvadd (_ bv1 64) strlen_886_64)))
 (let ((?x100064 ((_ extract 63 4) ?x100210)))
 (= (_ bv0 60) ?x100064))))
(assert
 (let ((?x100089 ((_ extract 3 0) strlen_886_64)))
 (let ((?x100006 (bvadd (_ bv1 4) ?x100089)))
 (bvule ?x100006 (_ bv9 4)))))
(assert
 (bvule strlen_886_64 (_ bv18446744073709551614 64)))
(assert
 (bvsle (_ bv0 64) sys_time_1073_64))
(assert
 (bvsge sys_time_1084_64 sys_time_1073_64))
(maximize strlen_772_64)
(maximize args_10_32)
(maximize args_4_8)
(maximize args_17_64)
(minimize strlen_590_64)
(maximize strlen_668_64)
(maximize sys_time_1073_64)
(maximize strlen_705_64)
(maximize strlen_280_64)
(maximize strlen_514_64)
(maximize args_14_32)
(maximize args_2_8)
(maximize strlen_79_64)
(maximize strlen_87_64)
(minimize strlen_280_64)
(minimize strlen_741_64)
(maximize args_8_16)
(minimize args_16_64)
(minimize args_9_16)
(minimize strlen_802_64)
(maximize args_9_16)
(minimize strlen_79_64)
(maximize strlen_81_64)
(maximize strlen_859_64)
(minimize args_0_8)
(minimize args_15_64)
(maximize args_16_64)
(minimize args_6_16)
(maximize args_15_64)
(minimize strlen_116_64)
(minimize strlen_409_64)
(minimize strlen_859_64)
(maximize strlen_91_64)
(minimize strlen_108_64)
(minimize strlen_85_64)
(minimize strlen_552_64)
(minimize strlen_77_64)
(minimize args_2_8)
(minimize strlen_310_64)
(maximize strlen_310_64)
(maximize args_1_8)
(minimize args_17_64)
(minimize args_12_32)
(minimize strlen_87_64)
(minimize strlen_189_64)
(maximize strlen_374_64)
(minimize strlen_83_64)
(maximize args_6_16)
(maximize strlen_116_64)
(maximize strlen_168_64)
(maximize strlen_478_64)
(maximize sys_time_1084_64)
(minimize strlen_514_64)
(minimize args_7_16)
(maximize strlen_886_64)
(minimize strlen_705_64)
(minimize strlen_772_64)
(maximize strlen_552_64)
(minimize sys_time_1084_64)
(check-sat)
(get-objectives)
